NAME : DD45.1483942.tour
COMMENT : Cost = 0_1483942
COMMENT : Found by LKH [Keld Helsgaun] Sun Apr 23 15:14:36 2017
TYPE : TOUR
DIMENSION : 93
TOUR_SECTION
1
5
50
11
56
8
53
28
73
42
87
14
59
35
80
36
81
33
78
13
58
9
54
20
65
31
76
6
51
18
63
93
38
39
84
83
7
52
43
24
88
25
69
45
90
40
70
27
72
85
22
34
67
79
46
91
44
89
30
75
92
3
10
55
16
61
48
2
32
77
47
23
12
57
68
26
71
41
86
29
17
62
74
19
64
15
60
4
49
21
37
66
82
-1
EOF
